% Logging successfully configured
%%%mzn-stat: initTime=0.021847925
%%%mzn-stat: objective=1006
%%%mzn-stat: nodes=28024
%%%mzn-stat: restarts=0
%%%mzn-stat: peakDepth=1193
%%%mzn-stat: solveTime=3.282253536
%%%mzn-stat: variables=1767
%%%mzn-stat: propagators=1426
%%%mzn-stat: failures=1962
%%%mzn-stat: propagations=199383
%%%mzn-stat: nogoods=1962
%%%mzn-stat: numAtomicConstraintsPropagated=0
%%%mzn-stat: allDifferentNumber1TotalHallSetSize=50854
%%%mzn-stat: allDifferentNumber1NumberOfConflicts=1915
%%%mzn-stat: allDifferentNumber1MaxHallSetSize=106
%%%mzn-stat: allDifferentNumber1PropagationsTotal=40326
%%%mzn-stat: allDifferentNumber1PropagationsThatFoundConflict=1915
%%%mzn-stat: circuitNumber2PropagationsThatFoundConflict=9
%%%mzn-stat: circuitNumber2TotalFixedEdgesAtConflict=1107
%%%mzn-stat: circuitNumber2NumberOfConflicts=9
%%%mzn-stat: circuitNumber2PropagationsThatPruned=1191
%%%mzn-stat: circuitNumber2PropagationsTotal=27655
%%%mzn-stat: AverageConflictSize=24.624362895005095
%%%mzn-stat: NumUnitNogoodsLearned=0
%%%mzn-stat: AverageLearnedNogoodLength=27.42150866462793
%%%mzn-stat: AverageBacktrackAmount=0
%%%mzn-stat: AverageLbd=21.900611620795107
%%%mzn-stat: 2AutonomousSearchNumBackupCalled=1079
%%%mzn-stat: 2AutonomousSearchNumPredicatesRemoved=0
%%%mzn-stat: 2AutonomousSearchNumCalls=1080
%%%mzn-stat: 2AutonomousSearchNumPredicatesAdded=3925
%%%mzn-stat: 2AutonomousSearchAverageSizeOfHeap=3.634259259259259
%%%mzn-stat: 2AutonomousSearchNumAssignedPredicatesEncountered=3925
%%%mzn-stat-end
maxleg = 1006;
succ = array1d(1..150,[45, 10, 7, 37, 19, 13, 16, 31, 72, 50, 23, 39, 66, 27, 24, 6, 18, 43, 33, 29, 53, 35, 40, 36, 26, 2, 52, 56, 41, 32, 20, 25, 71, 46, 85, 57, 75, 4, 22, 42, 87, 44, 15, 47, 34, 8, 3, 62, 80, 51, 81, 5, 12, 11, 76, 58, 60, 59, 68, 63, 74, 83, 48, 54, 38, 61, 77, 141, 21, 17, 124, 64, 149, 107, 94, 14, 126, 70, 89, 86, 108, 9, 137, 49, 131, 78, 114, 82, 98, 140, 69, 101, 115, 93, 119, 150, 117, 104, 30, 118, 97, 122, 106, 109, 99, 142, 113, 129, 123, 102, 133, 67, 105, 73, 127, 139, 134, 148, 128, 103, 100, 125, 138, 120, 136, 143, 144, 116, 65, 147, 90, 91, 110, 135, 132, 88, 145, 1, 112, 121, 95, 96, 79, 55, 92, 28, 146, 130, 111, 84]);
% time elapsed: 3.76 s
----------
%%%mzn-stat: initTime=0.021847925
%%%mzn-stat: objective=1006
%%%mzn-stat: nodes=2523591
%%%mzn-stat: restarts=0
%%%mzn-stat: peakDepth=1193
%%%mzn-stat: solveTime=1799.592881648
%%%mzn-stat: variables=1767
%%%mzn-stat: propagators=1426
%%%mzn-stat: failures=1508152
%%%mzn-stat: propagations=40042025
%%%mzn-stat: nogoods=1508152
%%%mzn-stat: numAtomicConstraintsPropagated=0
%%%mzn-stat: allDifferentNumber1TotalHallSetSize=59619338
%%%mzn-stat: allDifferentNumber1NumberOfConflicts=1481686
%%%mzn-stat: allDifferentNumber1MaxHallSetSize=106
%%%mzn-stat: allDifferentNumber1PropagationsTotal=4718695
%%%mzn-stat: allDifferentNumber1PropagationsThatFoundConflict=1481686
%%%mzn-stat: circuitNumber2PropagationsThatFoundConflict=19921
%%%mzn-stat: circuitNumber2TotalFixedEdgesAtConflict=2264801
%%%mzn-stat: circuitNumber2NumberOfConflicts=19921
%%%mzn-stat: circuitNumber2PropagationsThatPruned=31623
%%%mzn-stat: circuitNumber2PropagationsTotal=2008864
%%%mzn-stat: AverageConflictSize=61.4745774961675
%%%mzn-stat: NumUnitNogoodsLearned=0
%%%mzn-stat: AverageLearnedNogoodLength=99.08497949808772
%%%mzn-stat: AverageBacktrackAmount=0
%%%mzn-stat: AverageLbd=47.19445917918088
%%%mzn-stat: 2AutonomousSearchNumBackupCalled=1079
%%%mzn-stat: 2AutonomousSearchNumPredicatesRemoved=0
%%%mzn-stat: 2AutonomousSearchNumCalls=1080
%%%mzn-stat: 2AutonomousSearchNumPredicatesAdded=13098
%%%mzn-stat: 2AutonomousSearchAverageSizeOfHeap=3.634259259259259
%%%mzn-stat: 2AutonomousSearchNumAssignedPredicatesEncountered=3925
%%%mzn-stat-end
